(set-info :status unknown)
(declare-fun %Y () (_ BitVec 7))
(declare-fun %X () (_ BitVec 7))
(assert
 (let (($x767 (and (distinct (bvurem ((_ zero_extend 23) %X) ((_ zero_extend 23) %Y)) ((_ zero_extend 23) (bvurem %X %Y))) true)))
 (and (and (distinct ((_ zero_extend 23) %Y) (_ bv0 30)) true) $x767)))
(check-sat)
